(set-logic QF_FP)
(set-info :smt-lib-version 2.0)
(set-info :category "crafted")
(set-info :source |Alberto Griggio <griggio@fbk.eu>. These benchmarks were used for the evaluation in the following paper: L. Haller, A. Griggio, M. Brain, D. Kroening: Deciding floating-point logic with systematic abstraction. FMCAD 2012. Real-numbered literals have been automatically translated by MathSAT|)
(set-info :status unknown)
;; MathSAT API call trace
;; generated on 05/20/15 17:24:51

(declare-fun b21 () (_ FloatingPoint 8 24))
(declare-fun b18 () (_ FloatingPoint 8 24))
(declare-fun b8 () (_ FloatingPoint 8 24))
(declare-fun b13 () (_ FloatingPoint 11 53))
(define-fun _t_3 () RoundingMode RNE)
(define-fun _t_9 () (_ FloatingPoint 8 24) b8)
(define-fun _t_10 () (_ FloatingPoint 8 24) b18)
(define-fun _t_11 () Bool (fp.leq _t_9 _t_10))
(define-fun _t_12 () (_ FloatingPoint 8 24) (fp.mul _t_3 _t_9 _t_9))
(define-fun _t_13 () (_ FloatingPoint 8 24) (fp.add _t_3 _t_9 _t_12))
(define-fun _t_14 () (_ FloatingPoint 11 53) ((_ to_fp 11 53) _t_3 _t_13))
(define-fun _t_15 () (_ FloatingPoint 11 53) b13)
(define-fun _t_16 () Bool (fp.lt _t_14 _t_15))
(define-fun _t_17 () Bool (and _t_11 _t_16))
(define-fun _t_18 () (_ FloatingPoint 8 24) b21)
(define-fun _t_19 () Bool (fp.leq _t_18 _t_9))
(define-fun _t_20 () Bool (and _t_17 _t_19))
(assert _t_20)
(check-sat)
